### Definizione degli insiemi ###
set INTER := 1 2 3 4;
set ROADS :=
(1, 1)
(2, 2)
(3, 3)
(4, 4)
(1, 2)
(2, 1)
(2, 4)
(4, 2)
(3, 4)
(4, 3)
(1, 3)
(3, 1);

set AGENTI := a1 a2 a3;

### Parametri ###
param: entr   exit :=
      a1    4     1
      a2    2     3
      a3    1     4;

param Tmax :=4;  ### Tempo massimo entro cui tutti gli agenti devono raggiungere le loro destinazioni

solve;
printf "Percorso degli agenti:\n";
for {k in AGENTI} {
    printf "Agente %s:\n", k;
    for {t in 1..Tmax} {
        for {(i, j) in ROADS}{
              if (Use[i,j, k, t]=1) then {  
              printf "Tempo %s:", t;
              printf "    Nodo %s -> Nodo %s \n", i,j;
              }
        } 
    }
    printf "\n";
}